p wcnf 135 161 162 
1 26 -9 0 
1 102 33 0 
1 11 -79 0 
1 38 -129 0 
1 -67 1 0 
1 135 -26 0 
1 -24 113 0 
1 97 -38 0 
1 89 -96 0 
1 -64 -83 0 
1 64 -58 0 
1 36 17 0 
1 25 22 0 
1 -102 -74 0 
1 -70 -122 0 
1 87 60 0 
1 -27 -44 0 
1 -60 -133 0 
1 64 -77 0 
1 -86 -99 0 
1 68 -82 0 
1 -130 44 0 
1 24 -55 0 
1 45 -70 0 
1 -91 -11 0 
1 51 125 0 
1 30 -39 0 
1 63 110 0 
1 26 -76 0 
1 53 -93 0 
1 39 92 0 
1 -109 -49 0 
1 103 -105 0 
1 -67 -81 0 
1 -126 -98 0 
1 -120 -121 0 
1 -102 65 0 
1 116 79 0 
1 69 78 0 
1 14 -25 0 
1 132 -133 0 
1 -30 45 0 
1 -127 1 0 
1 -81 6 0 
1 24 123 0 
1 -58 -101 0 
1 18 -74 0 
1 1 22 0 
1 95 8 0 
1 -2 -34 0 
1 -45 -5 0 
1 -113 88 0 
1 25 38 0 
1 -45 -120 0 
1 45 -35 0 
1 -62 -75 0 
1 17 134 0 
1 -11 -15 0 
1 78 -131 0 
1 -115 -12 0 
1 11 74 0 
1 100 43 0 
1 13 -8 0 
1 -46 -72 0 
1 -53 46 0 
1 51 50 0 
1 -72 102 0 
1 94 -9 0 
1 -79 78 0 
1 26 30 0 
1 71 -20 0 
1 -94 59 0 
1 14 -95 0 
1 103 27 0 
1 -121 106 0 
1 119 -113 0 
1 13 -125 0 
1 -65 61 0 
1 -40 -132 0 
1 -51 -13 0 
1 79 89 0 
1 2 -85 0 
1 -135 -125 0 
1 -63 -42 0 
1 -80 -21 0 
1 -59 125 0 
1 -82 62 0 
1 125 77 0 
1 -42 82 0 
1 -4 57 0 
1 100 -120 0 
1 -31 132 0 
1 114 -98 0 
1 14 19 0 
1 -61 75 0 
1 -80 -45 0 
1 -81 -14 0 
1 63 -94 0 
1 12 -70 0 
1 124 100 0 
1 -81 -42 0 
1 -116 -29 0 
1 111 89 0 
1 37 -54 0 
1 68 57 0 
1 -54 -26 0 
1 -46 -29 0 
1 -106 -74 0 
1 -116 64 0 
1 63 -58 0 
1 -106 4 0 
1 -47 -1 0 
1 90 -10 0 
1 -126 -70 0 
1 -66 -107 0 
1 -61 46 0 
1 -7 131 0 
1 -5 42 0 
1 -63 -36 0 
1 82 -98 0 
1 -27 -75 0 
1 5 48 0 
1 91 -6 0 
1 -66 -110 0 
1 126 -89 0 
1 -95 54 0 
1 -13 -115 0 
1 -56 -129 0 
1 -39 -130 0 
1 129 -96 0 
1 3 6 0 
1 -68 -113 0 
1 3 -108 0 
1 32 -134 0 
1 -99 -86 0 
1 124 -129 0 
1 -98 -14 0 
1 -113 -29 0 
1 -127 -26 0 
1 -50 81 0 
1 98 -29 0 
1 -81 -129 0 
1 12 83 0 
1 133 -22 0 
1 -118 103 0 
1 38 71 0 
1 74 113 0 
1 -120 -100 0 
1 -92 -131 0 
1 16 -22 0 
1 16 -94 0 
1 -88 89 0 
1 43 -87 0 
1 56 -7 0 
1 78 -15 0 
1 -72 132 0 
1 -34 -3 0 
1 -113 -73 0 
1 25 96 0 
1 21 -91 0 
1 -58 2 0 
